1111100 AB
371 398 417 436 455 474 494 513 532 556 580 604 628 651 674 698 721 744 768 791 814 838 861 884 908 931 955 979 1003 1027 1051 1071 1090 1109 1128 1148 1172 1196 1220 1243 1266 1289 1313 1343 1373 1403 1433 23
1111100 BA
340 367 397 425 450 469 488 507 527 545 562 587 611 635 659 682 705 729 752 775 799 822 845 869 892 915 939 962 986 1010 1036 1062 1086 1106 1125 1144 1160 1178 1202 1226 1250 1272 1294 1317 1341 1371 1399 1429
0000011 AB
360 380 399 418 440 462 485 508 531 554 577 601 624 647 671 694 717 741 764 787 811 834 857 881 904 927 951 974 997 1020 1037 1054 1072 1090 1107 1124 1140 1156 1180 1204 1227 1250 1273 1300 1328 1355 1383 1410 1438 25
0000011 BA
340 363 386 406 426 448 470 492 515 538 561 584 607 631 654 677 701 724 747 771 794 817 841 864 887 911 934 957 981 1004 1027 1050 1067 1084 1102 1120 1137 1154 1170 1186 1210 1234 1257 1277 1299 1326 1354 1381 1409 1436
